(set-logic QF_LIA)
(declare-fun x0 () Int)
(declare-fun x1 () Int)
(declare-fun x2 () Int)
(declare-fun x3 () Int)
(declare-fun x4 () Int)
(declare-fun x5 () Int)
(declare-fun x6 () Int)
(declare-fun x7 () Int)
(declare-fun x8 () Int)
(declare-fun x9 () Int)
(declare-fun A0 () Bool)
(declare-fun A1 () Bool)
(declare-fun A2 () Bool)
(declare-fun A3 () Bool)
(declare-fun A4 () Bool)
(declare-fun A5 () Bool)
(declare-fun A6 () Bool)
(declare-fun A9 () Bool)
(assert (let ((.def_0 (not A0))) (let ((.def_1 (not A5))) (let ((.def_2 (or .def_1 .def_0))) (let ((.def_3 (= .def_0 A1))) (let ((.def_4 (and .def_3 .def_2))) (let ((.def_5 (not A2))) (let ((.def_6 (* (- 1) x5))) (let ((.def_7 (* (- 1) x1))) (let ((.def_8 (+ .def_7 .def_6))) (let ((.def_9 (< .def_8 (- 1)))) (let ((.def_10 (not .def_9))) (let ((.def_11 (and .def_10 .def_5))) (let ((.def_12 (* (- 1) x8))) (let ((.def_13 (+ .def_6 .def_12))) (let ((.def_14 (< .def_13 (- 1)))) (let ((.def_15 (not .def_14))) (let ((.def_16 (* 1 x2))) (let ((.def_17 (< .def_16 1))) (let ((.def_18 (and .def_17 .def_15))) (let ((.def_19 (not .def_18))) (let ((.def_20 (and .def_19 .def_11))) (let ((.def_21 (or .def_20 .def_4))) (let ((.def_22 (not A3))) (let ((.def_23 (and .def_22 A4))) (let ((.def_24 (* 1 x9))) (let ((.def_25 (< .def_24 (- 1)))) (let ((.def_26 (not .def_25))) (let ((.def_27 (or .def_26 .def_5))) (let ((.def_28 (not .def_27))) (let ((.def_29 (or .def_28 .def_23))) (let ((.def_30 (or A2 A3))) (let ((.def_31 (* 1 x5))) (let ((.def_32 (< .def_31 1))) (let ((.def_33 (not .def_32))) (let ((.def_34 (and A9 .def_33))) (let ((.def_35 (and .def_34 .def_30))) (let ((.def_36 (not .def_35))) (let ((.def_37 (or .def_36 .def_29))) (let ((.def_38 (not .def_37))) (let ((.def_39 (or .def_38 .def_21))) (let ((.def_40 (< .def_12 (- 1)))) (let ((.def_41 (not .def_40))) (let ((.def_42 (and .def_41 A6))) (let ((.def_43 (not .def_42))) (let ((.def_44 (* 1 x0))) (let ((.def_45 (* 1 x8))) (let ((.def_46 (+ .def_45 .def_44))) (let ((.def_47 (< .def_46 (- 1)))) (let ((.def_48 (or .def_47 A5))) (let ((.def_49 (or .def_48 .def_43))) (let ((.def_50 (not A6))) (let ((.def_51 (= .def_50 A4))) (let ((.def_52 (* 1 x1))) (let ((.def_53 (< .def_52 (- 1)))) (let ((.def_54 (+ .def_24 .def_45))) (let ((.def_55 (< .def_54 1))) (let ((.def_56 (not .def_55))) (let ((.def_57 (and .def_56 .def_53))) (let ((.def_58 (and .def_57 .def_51))) (let ((.def_59 (not .def_58))) (let ((.def_60 (and .def_59 .def_49))) (let ((.def_61 (< .def_44 (- 1)))) (let ((.def_62 (not .def_61))) (let ((.def_63 (or A0 .def_62))) (let ((.def_64 (not .def_63))) (let ((.def_65 (+ .def_7 .def_12))) (let ((.def_66 (< .def_65 (- 1)))) (let ((.def_67 (not .def_66))) (let ((.def_68 (and A5 .def_67))) (let ((.def_69 (not .def_68))) (let ((.def_70 (or .def_69 .def_64))) (let ((.def_71 (and A1 A6))) (let ((.def_72 (* (- 1) x7))) (let ((.def_73 (< .def_72 (- 1)))) (let ((.def_74 (+ .def_31 .def_16))) (let ((.def_75 (< .def_74 1))) (let ((.def_76 (not .def_75))) (let ((.def_77 (and .def_76 .def_73))) (let ((.def_78 (not .def_77))) (let ((.def_79 (and .def_78 .def_71))) (let ((.def_80 (or .def_79 .def_70))) (let ((.def_81 (not .def_80))) (let ((.def_82 (and .def_81 .def_60))) (let ((.def_83 (not .def_82))) (let ((.def_84 (= .def_83 .def_39))) (let ((.def_85 (not .def_84))) (let ((.def_86 (* (- 1) x6))) (let ((.def_87 (+ .def_86 .def_72))) (let ((.def_88 (< .def_87 (- 1)))) (let ((.def_89 (not .def_88))) (let ((.def_90 (and A4 .def_89))) (let ((.def_91 (not .def_90))) (let ((.def_92 (* (- 1) x4))) (let ((.def_93 (+ .def_72 .def_92))) (let ((.def_94 (< .def_93 (- 1)))) (let ((.def_95 (not .def_94))) (let ((.def_96 (* 1 x4))) (let ((.def_97 (< .def_96 (- 1)))) (let ((.def_98 (or .def_97 .def_95))) (let ((.def_99 (not .def_98))) (let ((.def_100 (and .def_99 .def_91))) (let ((.def_101 (not .def_100))) (let ((.def_102 (+ .def_44 .def_86))) (let ((.def_103 (< .def_102 (- 1)))) (let ((.def_104 (not .def_103))) (let ((.def_105 (* (- 1) x0))) (let ((.def_106 (< .def_105 1))) (let ((.def_107 (not .def_106))) (let ((.def_108 (and .def_107 .def_104))) (let ((.def_109 (and A3 A2))) (let ((.def_110 (not .def_109))) (let ((.def_111 (or .def_110 .def_108))) (let ((.def_112 (not .def_111))) (let ((.def_113 (= .def_112 .def_101))) (let ((.def_114 (not .def_113))) (let ((.def_115 (not A4))) (let ((.def_116 (and .def_115 A6))) (let ((.def_117 (not A1))) (let ((.def_118 (* 1 x3))) (let ((.def_119 (+ .def_118 .def_86))) (let ((.def_120 (< .def_119 1))) (let ((.def_121 (or .def_120 .def_117))) (let ((.def_122 (not .def_121))) (let ((.def_123 (or .def_122 .def_116))) (let ((.def_124 (not A9))) (let ((.def_125 (< .def_86 (- 1)))) (let ((.def_126 (or .def_125 .def_124))) (let ((.def_127 (not .def_126))) (let ((.def_128 (and .def_53 A2))) (let ((.def_129 (not .def_128))) (let ((.def_130 (or .def_129 .def_127))) (let ((.def_131 (and .def_130 .def_123))) (let ((.def_132 (not .def_131))) (let ((.def_133 (or .def_132 .def_114))) (let ((.def_134 (and .def_115 .def_124))) (let ((.def_135 (+ .def_52 .def_105))) (let ((.def_136 (< .def_135 (- 1)))) (let ((.def_137 (* 1 x6))) (let ((.def_138 (< .def_137 1))) (let ((.def_139 (not .def_138))) (let ((.def_140 (or .def_139 .def_136))) (let ((.def_141 (not .def_140))) (let ((.def_142 (= .def_141 .def_134))) (let ((.def_143 (not .def_142))) (let ((.def_144 (+ .def_6 .def_16))) (let ((.def_145 (< .def_144 1))) (let ((.def_146 (or .def_115 .def_145))) (let ((.def_147 (not .def_146))) (let ((.def_148 (< .def_118 (- 1)))) (let ((.def_149 (not .def_148))) (let ((.def_150 (+ .def_45 .def_92))) (let ((.def_151 (< .def_150 1))) (let ((.def_152 (not .def_151))) (let ((.def_153 (or .def_152 .def_149))) (let ((.def_154 (or .def_153 .def_147))) (let ((.def_155 (not .def_154))) (let ((.def_156 (and .def_155 .def_143))) (let ((.def_157 (or A6 A4))) (let ((.def_158 (+ .def_137 .def_6))) (let ((.def_159 (< .def_158 (- 1)))) (let ((.def_160 (or .def_159 A3))) (let ((.def_161 (and .def_160 .def_157))) (let ((.def_162 (not .def_161))) (let ((.def_163 (or A5 .def_139))) (let ((.def_164 (not .def_163))) (let ((.def_165 (+ .def_16 .def_12))) (let ((.def_166 (< .def_165 1))) (let ((.def_167 (and .def_22 .def_166))) (let ((.def_168 (not .def_167))) (let ((.def_169 (and .def_168 .def_164))) (let ((.def_170 (not .def_169))) (let ((.def_171 (and .def_170 .def_162))) (let ((.def_172 (and .def_171 .def_156))) (let ((.def_173 (or .def_172 .def_133))) (let ((.def_174 (or .def_173 .def_85))) (let ((.def_175 (<= x9 1))) (let ((.def_176 (<= 0 x9))) (let ((.def_177 (<= x8 1))) (let ((.def_178 (<= 0 x8))) (let ((.def_179 (<= x7 1))) (let ((.def_180 (<= 0 x7))) (let ((.def_181 (<= x6 1))) (let ((.def_182 (<= 0 x6))) (let ((.def_183 (<= x5 1))) (let ((.def_184 (<= 0 x5))) (let ((.def_185 (<= x4 1))) (let ((.def_186 (<= 0 x4))) (let ((.def_187 (<= x3 1))) (let ((.def_188 (<= 0 x3))) (let ((.def_189 (<= x2 1))) (let ((.def_190 (<= 0 x2))) (let ((.def_191 (<= x1 1))) (let ((.def_192 (<= 0 x1))) (let ((.def_193 (<= x0 1))) (let ((.def_194 (<= 0 x0))) (let ((.def_195 (and .def_194 .def_193 .def_192 .def_191 .def_190 .def_189 .def_188 .def_187 .def_186 .def_185 .def_184 .def_183 .def_182 .def_181 .def_180 .def_179 .def_178 .def_177 .def_176 .def_175 .def_174))) .def_195)))))))))))))))))))))))))))))))))))))))))))))))))))))))))))))))))))))))))))))))))))))))))))))))))))))))))))))))))))))))))))))))))))))))))))))))))))))))))))))))))))))))))))))))))))))))))))))))))))))
(check-sat)
